c --- [ banner ] -------------------------------------------------------------
c 
c CaDiCaL SAT Solver
c Copyright (c) 2016-2023 A. Biere, M. Fleury, N. Froleyks, K. Fazekas, F. Pollitt
c 
c Version 1.9.1 56f667c858dd7d9da1cc98ce0fb4030713881914
c g++ (GCC) 9.3.0 -Wall -Wextra -O3 -DNDEBUG
c Sun Dec 3 22:06:59 PST 2023 Linux cedar5.cedar.computecanada.ca 3.10.0-1160.90.1.el7.x86_64 x86_64
c 
c --- [ parsing input ] ------------------------------------------------------
c 
c reading DIMACS file from 'logs/21_3_3_3_True_False_False_False_-460_False_0.0_False_4_cadical_24/instance_21_3_3_3_True_False_False_False_-460_False_0.0_False_4_cadical_24.cnf'
c opening file to read 'logs/21_3_3_3_True_False_False_False_-460_False_0.0_False_4_cadical_24/instance_21_3_3_3_True_False_False_False_-460_False_0.0_False_4_cadical_24.cnf'
c found 'p cnf 95715 359072' header
c parsed 359072 clauses in 0.18 seconds process time
c 
c --- [ options ] ------------------------------------------------------------
c 
c   --phase=false                  (different from default 'true')
c 
c --- [ solving ] ------------------------------------------------------------
c 
c time measured in process time since initialization
c 
c  seconds  reductions  redundant  irredundant
c         MB    restarts       trail       variables
c          level   conflicts       glue         remaining
c 
c *  0.18 54  0 0   0    0    0  0% 0 356400 53484 56%
c {  0.19 54  0 0   0    0    0  0% 0 356400 53484 56%
c -  0.37 54 43 1   2  300  296 56% 14 153367 53484 56%
c }  0.64 55 34 1   5 1000  982 55% 12 153367 53484 56%
c [  0.64 55  0 1   5 1000  982  0% 0 153367 53484 56%
c O  0.64 55 86 1   5 1002  984 56% 3 153367 53484 56%
c -  0.70 61 121 2   5 1012  837 60% 4 153367 53484 56%
c -  1.23 62 39 3   6 2080 1399 58% 15 153367 53484 56%
c ]  1.66 62 33 3   6 3000 2273 58% 16 153367 53484 56%
c {  1.66 62 34 3   6 3000 2273 55% 12 153367 53484 56%
c F  1.77 53 34 3   6 3004 2277  1% 12 153367 53484 56%
c -  1.99 54 36 4  19 3504 2046 20% 12 153367 53484 56%
c d  2.56 61 36 4  88 5002 3504 20% 11 93299 23899 25%
c 3  2.62 62 36 4  88 5002 5647 20% 11 93299 23899 25%
c d  2.67 62 36 4  88 5002 6258 20% 11 93299 23895 25%
c 2  2.69 62 36 4  88 5002 6258 20% 11 92301 23895 25%
c p  2.73 62 36 4  88 5002 26083 20% 11 92301 23895 25%
c d  2.75 62 36 4  88 5002 26026 20% 11 92299 23866 25%
c -  2.85 56 36 5  91 5283 2236 18% 11 92299 23866 25%
c s  2.93 56 35 5  97 5473 2410 17% 11 89188 23866 25%
c 
c  seconds  reductions  redundant   irredundant
c         MB    restarts       trail       variables
c          level   conflicts       glue         remaining
c 
c v  3.01 56 35 5  97 5473 2410 17% 11 89166 23866 25%
c w  3.03 56 35 5  97 5473 2410 17% 11 89166 23866 25%
c t  3.05 56 35 5  97 5473 2410 17% 11 89122 23866 25%
c e  3.20 60 35 5  97 5473  246 17% 11 79593 10946 11%
c s  3.25 60 35 5  97 5473  245 17% 11 79559 10946 11%
c e  3.27 60 35 5  97 5473  245 17% 11 79559 10942 11%
c #  3.36 60 33 5 106 6006  752 15% 11 79559 10942 11%
c }  3.45 60 33 5 152 7001 1688 12% 11 79559 10942 11%
c [  3.45 60 33 5 152 7001 1688 103% 16 79559 10942 11%
c -  3.48 60 33 6 153 7083 1701 99% 15 79559 10942 11%
c -  3.67 63 32 7 154 9183 2867  8% 15 79559 10942 11%
c I  3.72 63 30 7 154 10008 3497  8% 15 79559 10942 11%
c -  3.86 63 35 8 156 11585 3319  8% 16 79559 10942 11%
c -  4.13 64 37 9 157 14286 4083  8% 17 79559 10942 11%
c ]  4.21 64 38 9 157 15001 4770  8% 17 79559 10942 11%
c {  4.21 64 33 9 157 15001 4770 57% 11 79559 10942 11%
c p  4.26 64 33 9 157 15003 9549 57% 11 79559 10942 11%
c B  4.27 64 33 9 159 15009 9555 57% 11 79559 10942 11%
c s  4.51 64 33 9 288 16923 10453 42% 11 79554 10942 11%
c w  4.60 64 33 9 288 16923 10451 42% 11 79554 10942 11%
c 
c  seconds  reductions    redundant   irredundant
c         MB    restarts         trail       variables
c          level    conflicts        glue         remaining
c 
c t  4.60 64 33 9 288 16923 10451 42% 11 79552 10942 11%
c e  4.62 64 33 9 288 16923 10451 42% 11 79552 10940 11%
c s  4.63 64 33 9 288 16923 10449 42% 11 79552 10940 11%
c ^  4.64 64 33 9 288 16923 10449 42% 11 79552 10940 11%
c -  4.69 64 33 10 339 17287 5148 40% 11 79552 10940 11%
c -  5.05 64 31 11 483 20587 5574 30% 11 79552 10940 11%
c W  5.17 64 30 11 494 21010 5986 30% 11 79552 10940 11%
c -  5.54 64 28 12 552 24188 6163 26% 10 79552 10940 11%
c F  5.86 64 27 12 831 28011 9711 22% 10 79552 10940 11%
c -  5.88 64 27 13 842 28089 6958 22% 10 79552 10940 11%
c p  6.12 64 27 13 1008 30003 10760 21% 11 79552 10940 11%
c }  6.24 64 28 13 1144 31001 11733 20% 11 79552 10940 11%
c [  6.24 64 38 13 1144 31001 11733  8% 17 79552 10940 11%
c -  6.43 64 36 14 1144 32289 7867  9% 17 79552 10940 11%
c s  6.69 64 35 14 1145 34098 9576  9% 17 79552 10940 11%
c v  6.76 64 35 14 1145 34098 9576  9% 17 79547 10940 11%
c w  6.79 64 35 14 1145 34098 9576  9% 17 79547 10940 11%
c e  6.86 64 35 14 1145 34098 8961  9% 17 79573 10914 11%
c s  6.87 64 35 14 1145 34098 8957  9% 17 79566 10914 11%
c B  7.17 64 35 14 1147 36014 10770 11% 17 79566 10914 11%
c 
c  seconds  reductions     redundant   irredundant
c         MB     restarts         trail       variables
c          level      conflicts       glue         remaining
c 
c -  7.31 64 35 15 1147 36790 8139 11% 17 79566 10914 11%
c -  8.05 64 33 16 1151 41590 8403 13% 17 79566 10914 11%
c W  8.67 64 32 16 1151 45015 11342 14% 17 79566 10914 11%
c -  8.99 64 31 17 1152 46690 9046 14% 17 79566 10914 11%
c p  9.61 64 31 17 1152 50003 13642 15% 17 79566 10914 11%
c -  9.96 64 30 18 1152 52090 9588 15% 17 79566 10914 11%
c O 10.42 64 30 18 1154 55016 11940 15% 17 79566 10914 11%
c - 10.90 64 29 19 1155 57790 10421 16% 17 79566 10914 11%
c ] 11.83 64 29 19 1159 63001 14840 17% 17 79566 10914 11%
c { 11.83 64 28 19 1159 63001 14840 20% 11 79566 10914 11%
c - 11.92 64 28 20 1214 63790 11011 20% 11 79566 10914 11%
c B 12.13 64 27 20 1422 66017 13104 19% 11 79566 10914 11%
c - 12.68 64 28 21 1723 70090 12255 18% 11 79566 10914 11%
c p 13.30 64 28 21 2063 75003 18570 17% 11 79566 10914 11%
c - 13.54 64 28 22 2196 76691 13828 16% 11 79566 10914 11%
c W 13.85 64 27 22 2241 78018 15086 16% 11 79566 10914 11%
c - 14.62 64 27 23 2653 83591 15089 16% 11 79566 10914 11%
c - 15.55 64 27 24 3249 90792 16326 15% 11 79566 10914 11%
c # 15.56 64 27 24 3249 91020 16548 15% 11 79566 10914 11%
c - 16.38 64 27 25 3999 98294 17414 14% 11 79566 10914 11%
c 
c  seconds  reductions       redundant   irredundant
c         MB     restarts           trail       variables
c          level      conflicts         glue         remaining
c 
c p 17.12 64 27 25 4344 105004 25676 13% 11 79566 10914 11%
c B 17.13 64 27 25 4344 105023 25694 13% 11 79566 10914 11%
c - 17.26 64 26 26 4443 106098 18294 13% 11 79566 10914 11%
c - 17.86 64 25 27 4790 114198 18359 13% 11 79566 10914 11%
c W 18.43 64 24 27 5057 120024 23628 12% 11 79566 10914 11%
c - 18.67 64 24 28 5272 122598 18840 12% 11 79566 10914 11%
c } 19.01 64 24 28 5608 127001 22747 12% 11 79566 10914 11%
c [ 19.01 64 29 28 5608 127001 22747 17% 17 79566 10914 11%
c - 19.50 64 28 29 5610 131298 19415 17% 16 79566 10914 11%
c B 20.10 64 26 29 5613 136026 23836 17% 16 79566 10914 11%
c p 20.61 64 26 29 5615 140004 29474 17% 16 79566 10914 11%
c - 20.68 64 26 30 5615 140299 20443 17% 16 79566 10914 11%
c - 21.98 64 26 31 5616 149600 20224 16% 16 79566 10914 11%
c s 22.02 64 26 31 5616 149600 20116 16% 16 79565 10914 11%
c v 22.20 64 26 31 5616 149600 20116 16% 16 79538 10914 11%
c w 22.26 64 26 31 5616 149600 20104 16% 16 79538 10914 11%
c e 22.28 64 26 31 5616 149600 20032 16% 16 79539 10913 11%
c s 22.30 64 26 31 5616 149600 20004 16% 16 79538 10913 11%
c W 23.03 64 26 31 5617 153028 22993 16% 16 79538 10913 11%
c - 24.02 64 25 32 5617 159200 20449 16% 16 79538 10913 11%
c 
c  seconds  reductions       redundant   irredundant
c         MB     restarts           trail       variables
c          level      conflicts         glue         remaining
c 
c - 25.60 64 25 33 5619 169100 20817 15% 16 79538 10913 11%
c I 25.90 64 25 33 5620 171030 22338 15% 16 79538 10913 11%
c - 26.98 64 26 34 5624 179301 21772 14% 17 79538 10913 11%
c p 27.13 64 26 34 5625 180004 24162 14% 17 79538 10913 11%
c - 28.63 64 27 35 5631 189801 22426 14% 17 79538 10913 11%
c B 28.68 64 27 35 5631 190033 22607 14% 18 79538 10913 11%
c - 30.44 64 26 36 5633 200603 22796 14% 17 79538 10913 11%
c W 32.38 64 26 36 5639 210034 30013 14% 17 79538 10913 11%
c - 32.66 64 26 37 5639 211704 23767 14% 17 79538 10913 11%
c - 34.53 64 25 38 5646 223104 24366 14% 17 79538 10913 11%
c d 34.85 64 25 38 5647 225005 25793 13% 17 79538 10911 11%
c 2 34.88 64 25 38 5647 225005 26821 13% 17 79534 10911 11%
c p 34.89 64 25 38 5647 225005 27278 13% 17 79534 10911 11%
c s 34.94 64 25 38 5647 225005 26955 13% 17 79530 10911 11%
c w 35.23 64 25 38 5647 225005 26950 13% 17 79530 10911 11%
c s 35.28 64 25 38 5647 225005 26921 13% 17 79530 10911 11%
c ^ 35.29 64 25 38 5647 225005 26921 13% 17 79530 10911 11%
c O 36.33 64 25 38 5647 231035 31586 13% 17 79530 10911 11%
c - 37.03 64 24 39 5648 234805 25486 13% 17 79530 10911 11%
c - 39.08 64 24 40 5648 246806 25428 14% 17 79530 10911 11%
c 
c  seconds  reductions       redundant   irredundant
c         MB     restarts           trail       variables
c          level      conflicts         glue         remaining
c 
c B 40.26 64 24 40 5649 253036 30019 14% 16 79530 10911 11%
c ] 40.62 64 24 40 5649 255001 31380 14% 17 79530 10911 11%
c { 40.62 64 24 40 5649 255001 31380 12% 11 79530 10911 11%
c - 40.99 64 23 41 5972 259106 26224 12% 11 79530 10911 11%
c s 41.09 64 23 41 6013 259394 26483 12% 11 79530 10911 11%
c w 41.26 64 23 41 6013 259394 26483 12% 11 79530 10911 11%
c e 41.35 64 23 41 6013 259394 19105 12% 11 81381 9985 10%
c s 41.39 64 23 41 6013 259394 19101 12% 11 81378 9985 10%
c - 42.89 64 24 42 7185 271707 25084 11% 11 81378 9985 10%
c p 43.24 64 23 42 7308 275005 29387 11% 11 81378 9985 10%
c F 43.32 64 23 42 7308 276038 30212 11% 11 81378 9985 10%
c - 44.36 64 23 43 7917 284608 27728 11% 11 81378 9985 10%
c - 45.51 64 22 44 8484 297810 28102 11% 11 81378 9985 10%
c B 45.67 64 21 44 8487 300041 29734 11% 11 81378 9985 10%
c - 46.67 64 20 45 8643 311312 28346 10% 11 81378 9985 10%
c W 48.51 64 19 45 8789 325042 38333 10% 10 81378 9985 10%
c - 48.54 64 19 46 8803 325112 28414 10% 10 81378 9985 10%
c p 49.08 64 19 46 9210 330008 34210 10% 10 81378 9985 10%
c - 50.13 64 19 47 9902 339215 32730 10% 10 81378 9985 10%
c # 51.37 64 19 47 10992 351043 42791 10% 10 81378 9985 10%
c 
c  seconds  reductions        redundant   irredundant
c         MB      restarts           trail      variables
c          level       conflicts         glue        remaining
c 
c - 51.84 64 19 48 11234 353615 32442 10% 10 81378 9985 10%
c - 53.28 64 19 49 12287 368316 32683 10% 10 81378 9985 10%
c B 54.32 64 19 49 12918 378045 40811 10% 10 81378 9985 10%
c - 54.95 64 19 50 13224 383317 32848 10% 10 81378 9985 10%
c p 55.85 64 19 50 13961 390008 40447 10% 10 81378 9984 10%
c s 55.93 64 19 50 13961 390008 39569 10% 10 81372 9984 10%
c v 56.16 64 19 50 13961 390008 39569 10% 10 81365 9984 10%
c w 56.25 64 19 50 13961 390008 39558 10% 10 81365 9984 10%
c s 56.31 64 19 50 13961 390008 39519 10% 10 81365 9984 10%
c ^ 56.33 64 19 50 13961 390008 39519 10% 10 81365 9984 10%
c - 56.97 64 19 51 14098 398618 34243  9% 10 81365 9984 10%
c W 58.16 64 18 51 14593 406046 40663  9% 10 81365 9984 10%
c - 59.23 64 19 52 15741 414219 35813  9% 10 81365 9984 10%
c - 60.92 64 18 53 16878 430121 36015  9% 10 81365 9984 10%
c F 61.57 64 18 53 17319 435048 40470  9% 10 81365 9984 10%
c s 61.91 64 18 53 17470 438436 42920  9% 10 81365 9984 10%
c v 62.01 64 18 53 17470 438436 42920  9% 10 81363 9984 10%
c w 62.07 64 18 53 17470 438436 42920  9% 10 81363 9984 10%
c e 62.16 64 18 53 17470 438436 42476  9% 10 81409 9972 10%
c s 62.19 64 18 53 17470 438436 42445  9% 10 81409 9972 10%
c 
c  seconds  reductions        redundant   irredundant
c         MB      restarts           trail      variables
c          level       conflicts         glue        remaining
c 
c - 62.87 64 18 54 17812 446323 37621  9% 10 81408 9972 10%
c d 63.71 64 18 54 18392 455008 45281  9% 10 81408 9970 10%
c 2 63.74 64 18 54 18392 455008 46232  9% 10 81404 9970 10%
c p 63.76 64 18 54 18392 455008 46671  9% 10 81404 9970 10%
c - 64.63 64 17 55 18774 462823 36444  9% 10 81404 9970 10%
c B 64.82 64 17 55 18850 465050 38196  9% 10 81404 9970 10%
c - 67.07 64 19 56 21134 479624 39472  9% 11 81404 9970 10%
c s 68.49 64 18 56 22222 492963 50722  9% 11 81398 9970 10%
c w 68.72 64 18 56 22222 492963 50718  9% 11 81398 9970 10%
c s 68.79 64 18 56 22222 492963 50709  9% 11 81398 9970 10%
c ^ 68.80 64 18 56 22222 492963 50709  9% 11 81398 9970 10%
c W 69.75 64 18 56 22566 496051 53611  9% 11 81398 9970 10%
c - 69.83 70 18 57 22566 496724 39918  9% 11 81398 9970 10%
c } 71.90 70 19 57 24224 511001 52789  9% 11 81398 9970 10%
c [ 71.90 70 24 57 24224 511001 52789 14% 17 81398 9970 10%
c - 72.40 64 24 58 24224 514126 41224 14% 17 81398 9970 10%
c 3 74.08 64 26 58 24224 525009 53002 14% 17 81398 9970 10%
c p 74.13 64 26 58 24224 525009 53430 14% 17 81398 9970 10%
c W 75.22 64 26 58 24224 528052 56372 14% 17 81398 9970 10%
c - 75.84 64 27 59 24224 531827 42191 14% 17 81398 9970 10%
c 
c  seconds  reductions        redundant   irredundant
c         MB      restarts           trail      variables
c          level       conflicts         glue        remaining
c 
c - 78.96 71 27 60 24231 549827 39392 13% 18 81398 9970 10%
c s 79.71 71 27 60 24234 553552 42056 13% 18 81398 9970 10%
c w 79.97 71 27 60 24234 553552 42056 13% 18 81398 9970 10%
c e 80.12 54 27 60 24234 553552 21361 13% 18 93887 7890  8%
c s 80.20 54 27 60 24234 553552 21351 13% 18 93882 7890  8%
c I 81.42 48 27 60 24238 561054 27324 16% 18 93882 7890  8%
c - 82.21 54 28 61 24239 568128 27645 14% 18 93882 7890  8%
c - 84.82 54 28 62 24249 586729 32416 13% 19 93882 7890  8%
c B 86.07 54 29 62 24253 595057 39117 12% 19 93882 7890  8%
c d 86.86 54 29 62 24254 600009 43311 14% 19 93882 7889  8%
c 2 86.90 54 29 62 24254 600009 44120 14% 19 93880 7889  8%
c p 86.91 54 29 62 24254 600009 44550 14% 19 93880 7889  8%
c - 87.82 61 29 63 24255 605631 34328 14% 19 93880 7889  8%
c - 90.93 54 29 64 24259 624832 35155 15% 20 93880 7889  8%
c W 92.81 54 29 64 24262 630059 39504 15% 20 93880 7889  8%
c s 93.25 54 29 64 24262 632153 40979 15% 20 93876 7889  8%
c v 93.48 54 29 64 24262 632153 40979 15% 20 93842 7889  8%
c w 93.59 54 29 64 24262 632153 40969 15% 20 93842 7889  8%
c s 93.69 54 29 64 24262 632153 40949 15% 20 93842 7889  8%
c - 95.97 61 29 65 24269 644332 36066 16% 20 93842 7889  8%
c 
c  seconds  reductions        redundant   irredundant
c         MB      restarts           trail      variables
c          level       conflicts         glue        remaining
c 
c - 99.54 54 29 66 24277 664133 37368 16% 21 93842 7889  8%
c O 99.88 54 29 66 24278 666061 38987 16% 21 93842 7889  8%
c d 102.11 54 28 66 24285 680009 51747 17% 20 93842 7888  8%
c 2 102.15 54 28 66 24285 680009 52358 17% 20 93840 7888  8%
c p 102.16 54 28 66 24285 680009 52779 17% 20 93840 7888  8%
c - 103.02 62 28 67 24285 684234 38813 17% 19 93840 7888  8%
c B 106.59 62 26 67 24287 703064 53729 18% 19 93840 7888  8%
c - 106.87 54 27 68 24287 704636 38667 18% 19 93840 7888  8%
c s 109.10 54 27 68 24287 717892 50798 18% 19 93839 7888  8%
c v 109.38 54 27 68 24287 717892 50798 18% 19 93791 7888  8%
c w 109.49 54 27 68 24287 717892 50791 18% 19 93791 7888  8%
c s 109.59 54 27 68 24287 717892 50784 18% 19 93791 7888  8%
c ^ 109.61 54 27 68 24287 717892 50784 18% 19 93791 7888  8%
c - 110.96 62 27 69 24287 725336 41217 18% 19 93791 7888  8%
c W 115.12 62 27 69 24288 741066 54502 18% 19 93791 7888  8%
c - 116.14 54 27 70 24288 746336 41238 18% 19 93791 7888  8%
c d 119.51 54 27 70 24288 765011 55991 18% 19 93791 7886  8%
c 2 119.55 54 27 70 24288 765011 56821 18% 19 93787 7886  8%
c p 119.56 54 27 70 24288 765011 57251 18% 19 93787 7886  8%
c - 120.14 55 27 71 24288 767637 40647 18% 19 93787 7886  8%
c 
c  seconds   reductions        redundant   irredundant
c          MB      restarts           trail      variables
c           level       conflicts         glue        remaining
c 
c I 122.45 55 26 71 24288 780068 50255 18% 19 93787 7886  8%
c - 123.92 55 27 72 24288 789238 42743 17% 19 93787 7886  8%
c s 127.80 55 27 72 24295 810757 61004 16% 20 93785 7886  8%
c v 128.09 55 27 72 24295 810757 61004 16% 20 93781 7886  8%
c w 128.25 55 27 72 24295 810757 61003 16% 20 93781 7886  8%
c e 128.42 55 27 72 24295 810757 28141 16% 20 106164 6843  7%
c s 128.52 55 27 72 24295 810757 28113 16% 20 106123 6843  7%
c - 128.70 57 27 73 24295 811138 20816 15% 20 106123 6843  7%
c B 129.88 57 28 73 24301 820071 28745 13% 20 106123 6843  7%
c - 132.13 57 28 74 24304 833910 34249 17% 20 106123 6843  7%
c d 135.60 57 27 74 24317 855011 51465 17% 20 106123 6842  7%
c 3 135.62 57 27 74 24317 855011 52116 17% 20 106123 6842  7%
c 2 135.66 57 27 74 24317 855011 52354 17% 20 106118 6841  7%
c p 135.68 57 27 74 24317 855011 52756 17% 20 106118 6841  7%
c - 136.05 57 28 75 24317 856990 38700 17% 20 106118 6841  7%
c W 138.63 57 27 75 24318 861073 41618 16% 20 106118 6841  7%
c - 142.20 57 27 76 24319 880377 39941 17% 20 106118 6841  7%
c O 146.32 57 27 76 24332 903075 58579 17% 20 106118 6841  7%
c - 146.49 57 27 77 24333 904073 41849 17% 20 106118 6841  7%
c s 149.28 57 26 77 24339 921499 55662 18% 19 106093 6841  7%
c 
c  seconds   reductions        redundant   irredundant
c          MB      restarts           trail       variables
c           level       conflicts         glue         remaining
c 
c v 149.64 57 26 77 24339 921499 55662 18% 19 106019 6841  7%
c w 149.83 57 26 77 24339 921499 55651 18% 19 106019 6841  7%
c s 150.00 57 26 77 24339 921499 55609 18% 19 106019 6841  7%
c - 151.07 57 25 78 24341 928076 42273 18% 18 106019 6841  7%
c B 154.16 57 24 78 24349 946076 55392 18% 18 106019 6841  7%
c p 154.95 57 24 78 24350 950011 59624 18% 18 106019 6841  7%
c - 155.41 57 24 79 24350 952377 42858 18% 18 106019 6841  7%
c - 159.62 57 25 80 24351 976986 44106 17% 18 106019 6841  7%
c W 164.16 57 25 80 24351 990077 54462 17% 18 106019 6841  7%
c - 166.32 57 25 81 24354 1001903 44311 17% 18 106019 6841  7%
c ] 170.16 57 25 81 24366 1023002 60190 17% 18 106019 6841  7%
c { 170.16 57 19 81 24366 1023002 60190 14% 11 106019 6841  7%
c - 170.55 57 19 82 24574 1027129 45688 14% 11 106019 6841  7%
c # 171.71 57 19 82 25475 1035080 53218 14% 11 106019 6841  7%
c d 173.27 57 20 82 26654 1050014 66574 14% 11 106019 6838  7%
c 2 173.31 57 20 82 26654 1050014 67168 14% 11 106013 6838  7%
c p 173.33 57 20 82 26654 1050014 67556 14% 11 106013 6838  7%
c s 173.49 57 20 82 26654 1050014 67296 14% 11 105990 6838  7%
c v 173.89 57 20 82 26654 1050014 67296 14% 11 105856 6838  7%
c w 174.11 57 20 82 26654 1050014 67293 14% 11 105856 6838  7%
c 
c  seconds   reductions         redundant   irredundant
c          MB      restarts            trail       variables
c           level        conflicts         glue         remaining
c 
c s 174.25 57 20 82 26654 1050014 67255 14% 11 105855 6838  7%
c - 174.72 57 20 83 26817 1052661 48851 13% 11 105855 6838  7%
c - 177.35 57 19 84 27831 1078483 49144 13% 11 105855 6838  7%
c B 177.58 57 19 84 27862 1081082 50932 13% 11 105855 6838  7%
c - 180.28 57 19 85 29800 1104613 52039 13% 11 105855 6838  7%
c W 186.29 57 19 85 32256 1128084 73378 12% 11 105855 6838  7%
c - 186.77 57 19 86 32486 1131050 56082 13% 11 105855 6838  7%
c d 190.49 57 20 86 34804 1155014 78201 12% 11 105855 6832  7%
c 3 190.51 57 20 86 34804 1155014 79037 12% 11 105855 6832  7%
c 2 190.55 57 20 86 34804 1155014 79037 12% 11 105843 6832  7%
c p 190.58 57 20 86 34804 1155014 79418 12% 11 105843 6832  7%
c - 191.29 66 20 87 34989 1157795 59164 13% 11 105843 6832  7%
c F 192.92 66 19 87 35402 1176086 73936 12% 11 105843 6832  7%
c s 193.14 66 19 87 35476 1176491 74065 12% 11 105835 6832  7%
c v 193.43 66 19 87 35476 1176491 74065 12% 11 105834 6832  7%
c w 193.61 66 19 87 35476 1176491 74059 12% 11 105834 6832  7%
c s 193.76 66 19 87 35476 1176491 74029 12% 11 105833 6832  7%
c - 194.82 57 19 88 36096 1184847 58019 12% 11 105833 6832  7%
c - 198.08 57 18 89 37484 1212205 59363 12% 11 105833 6832  7%
c B 198.98 57 18 89 37826 1225087 70508 12% 11 105833 6832  7%
c 
c  seconds   reductions         redundant   irredundant
c          MB      restarts            trail       variables
c           level        conflicts         glue         remaining
c 
c - 200.75 66 18 90 39493 1239869 61969 12% 11 105833 6832  7%
c d 203.24 66 18 90 41146 1265014 83045 11% 11 105833 6827  7%
c 2 203.28 66 18 90 41146 1265014 83809 11% 11 105825 6827  7%
c p 203.31 66 18 90 41146 1265014 84177 11% 11 105825 6827  7%
c - 203.61 66 18 91 41396 1267841 60083 11% 11 105825 6827  7%
c W 206.91 66 18 91 41907 1275089 66334 11% 11 105825 6827  7%
c - 209.69 66 18 92 43876 1296119 61770 11% 11 105825 6827  7%
c s 212.37 66 18 92 45532 1310905 74623 12% 11 105794 6827  7%
c v 212.70 66 18 92 45532 1310905 74623 12% 11 105783 6827  7%
c w 212.86 66 18 92 45532 1310905 74619 12% 11 105783 6827  7%
c s 213.01 66 18 92 45532 1310905 74579 12% 11 105782 6827  7%
c - 215.28 75 19 93 46874 1324709 64651 12% 11 105782 6827  7%
c # 215.61 75 19 93 47131 1326091 65969 12% 11 105782 6827  7%
c - 220.73 66 19 94 49813 1353598 66678 12% 11 105782 6827  7%
c B 222.89 66 18 94 50355 1378092 86259 12% 11 105782 6827  7%
c d 223.08 66 18 94 50419 1380015 87965 12% 11 105782 6822  7%
c 2 223.12 66 18 94 50419 1380015 88675 12% 11 105772 6822  7%
c p 223.15 66 18 94 50419 1380015 89029 12% 11 105772 6822  7%
c - 223.86 66 18 95 50900 1382794 65538 12% 11 105772 6822  7%
c - 228.93 57 19 96 54293 1412296 69452 12% 11 105772 6822  7%
c 
c  seconds   reductions         redundant   irredundant
c          MB      restarts            trail       variables
c           level        conflicts         glue         remaining
c 
c W 235.46 57 19 96 56484 1431095 87055 12% 11 105772 6822  7%
c - 236.83 58 19 97 57129 1442105 71519 12% 11 105772 6822  7%
c s 238.44 58 19 97 58090 1453240 81018 12% 11 105766 6822  7%
c v 238.77 58 19 97 58090 1453240 81018 12% 11 105763 6822  7%
c w 238.98 58 19 97 58090 1453240 81011 12% 11 105763 6822  7%
c s 239.17 58 19 97 58090 1453240 80954 12% 11 105763 6822  7%
c - 240.80 57 18 98 58163 1472222 69639 12% 11 105763 6822  7%
c F 242.22 57 18 98 58590 1485097 80107 12% 11 105763 6822  7%
c d 245.08 57 18 98 60291 1500016 93464 12% 11 105763 6820  7%
c 2 245.13 57 18 98 60291 1500016 94119 12% 11 105759 6820  7%
c p 245.16 57 18 98 60291 1500016 94469 12% 11 105759 6820  7%
c - 245.67 67 18 99 60479 1502644 70890 12% 11 105759 6820  7%
c - 250.80 77 18 100 63287 1533375 73902 12% 11 105759 6820  7%
c B 251.52 77 18 100 63654 1540100 79672 12% 11 105759 6820  7%
c - 255.81 77 19 101 66536 1564411 74154 12% 11 105759 6820  7%
c - 258.61 77 18 102 67083 1595755 71251 11% 11 105759 6820  7%
c W 261.67 77 18 102 67172 1596101 71589 11% 11 105759 6820  7%
c s 262.54 77 17 102 67437 1603515 77963 11% 11 105757 6820  7%
c w 263.03 77 17 102 67437 1603515 77959 11% 11 105757 6820  7%
c s 263.21 77 17 102 67437 1603515 77933 11% 11 105757 6820  7%
c 
c  seconds    reductions         redundant   irredundant
c          MB       restarts            trail       variables
c           level         conflicts         glue         remaining
c 
c d 265.78 77 17 102 68909 1625016 96363 11% 11 105757 6817  7%
c 2 265.82 77 17 102 68909 1625016 97064 11% 11 105751 6817  7%
c p 265.85 77 17 102 68909 1625016 97410 11% 11 105751 6817  7%
c - 266.38 77 17 103 69231 1627407 70694 11% 11 105751 6817  7%
c # 271.87 77 18 103 72921 1653105 95049 11% 11 105751 6817  7%
c - 272.77 77 19 104 73467 1659366 76079 11% 11 105751 6817  7%
c - 279.61 58 19 105 76228 1691630 77307 12% 11 105751 6817  7%
c B 283.74 58 20 105 78358 1711106 95408 12% 11 105751 6817  7%
c - 285.77 58 20 106 79325 1724203 79286 12% 11 105751 6817  7%
c d 289.51 58 19 106 80733 1755017 104347 12% 11 105751 6814  7%
c 3 289.53 58 19 106 80733 1755017 104897 12% 11 105751 6814  7%
c 2 289.58 58 19 106 80733 1755017 104897 12% 11 105745 6814  7%
c p 289.61 58 19 106 80733 1755017 105236 12% 11 105745 6814  7%
c - 290.18 58 19 107 80990 1757083 78402 12% 11 105745 6814  7%
c s 291.47 58 19 107 81434 1761711 82415 12% 11 105738 6814  7%
c w 292.04 58 19 107 81434 1761711 82409 12% 11 105738 6814  7%
c s 292.25 58 19 107 81434 1761711 82375 12% 11 105738 6814  7%
c W 296.25 58 18 107 81540 1770108 88508 12% 11 105738 6814  7%
c - 299.35 68 18 108 82693 1790269 79379 12% 11 105738 6814  7%
c - 304.98 78 18 109 85029 1823761 82183 12% 11 105738 6814  7%
c 
c  seconds    reductions         redundant   irredundant
c          MB       restarts            trail       variables
c           level         conflicts         glue         remaining
c 
c F 306.59 78 18 109 85765 1830109 88050 12% 11 105738 6814  7%
c - 312.15 68 19 110 88294 1857560 84288 12% 11 105738 6814  7%
c d 317.28 68 18 110 89447 1890017 109789 12% 11 105738 6811  7%
c 3 317.30 68 18 110 89447 1890017 110651 12% 11 105738 6811  7%
c 2 317.35 68 18 110 89447 1890017 110651 12% 11 105732 6811  7%
c p 317.38 68 18 110 89447 1890017 110979 12% 11 105732 6811  7%
c B 317.60 68 18 110 89504 1891111 111948 12% 11 105732 6811  7%
c - 317.83 68 18 111 89640 1891666 83234 12% 11 105732 6811  7%
c - 325.00 79 18 112 93426 1926081 88526 12% 11 105732 6811  7%
c s 325.46 80 18 112 93730 1927857 89688 12% 11 105729 6811  7%
c w 326.04 80 18 112 93730 1927857 89680 12% 11 105729 6811  7%
c s 326.29 80 18 112 93730 1927857 89637 12% 11 105729 6811  7%
c W 332.96 80 18 112 95061 1953112 111500 12% 11 105729 6811  7%
c - 335.27 69 18 113 96255 1960801 89134 12% 11 105729 6811  7%
c - 342.46 80 18 114 98259 1995828 89419 12% 11 105729 6811  7%
c # 347.02 80 18 114 100009 2016113 107613 13% 11 105729 6811  7%
c d 348.84 80 18 114 100906 2030020 120049 12% 11 105729 6806  7%
c 3 348.86 80 18 114 100906 2030020 120697 12% 11 105729 6806  7%
c 2 348.90 80 18 114 100906 2030020 120697 12% 11 105721 6806  7%
c p 348.94 80 18 114 100906 2030020 121020 12% 11 105721 6806  7%
c 
c  seconds    reductions          redundant   irredundant
c          MB       restarts             trail       variables
c           level          conflicts         glue         remaining
c 
c - 349.12 69 18 115 100910 2031162 92147 12% 11 105721 6806  7%
c } 350.89 69 17 115 101147 2047004 103587 12% 11 105721 6806  7%
c [ 350.89 69 25 115 101147 2047004 103587 17% 18 105721 6806  7%
c - 353.33 69 23 116 101154 2066804 84933 15% 17 105721 6806  7%
c I 354.60 69 22 116 101162 2080114 94041 15% 16 105721 6806  7%
c s 358.51 69 25 116 101163 2101938 113853 14% 18 105711 6806  7%
c w 359.20 69 25 116 101163 2101938 113852 14% 18 105711 6806  7%
c s 359.40 69 25 116 101163 2101938 113809 14% 18 105711 6806  7%
c - 359.68 81 25 117 101163 2102752 86214 14% 18 105711 6806  7%
c - 366.89 69 26 118 101180 2139005 83419 13% 19 105711 6806  7%
c B 368.10 69 27 118 101184 2145115 88489 13% 19 105711 6806  7%
c d 374.73 69 24 118 101194 2175020 112144 14% 18 105711 6805  7%
c 3 374.76 69 24 118 101194 2175020 112749 14% 18 105711 6805  7%
c 2 374.80 69 24 118 101194 2175020 112749 14% 18 105709 6805  7%
c p 374.84 69 24 118 101194 2175020 113076 14% 18 105709 6805  7%
c - 375.03 71 24 119 101194 2175566 83154 14% 18 105709 6805  7%
c W 385.85 71 22 119 101195 2211116 108411 15% 16 105709 6805  7%
c - 386.22 71 22 120 101195 2212437 81470 15% 16 105709 6805  7%
c - 394.46 71 21 121 101196 2249612 82356 15% 16 105709 6805  7%
c O 400.33 71 21 121 101196 2278118 103446 15% 16 105709 6805  7%
c 
c  seconds    reductions          redundant    irredundant
c          MB       restarts              trail       variables
c           level          conflicts          glue         remaining
c 
c s 401.68 71 21 121 101196 2283969 107856 16% 16 105708 6805  7%
c w 402.55 71 21 121 101196 2283969 107856 16% 16 105708 6805  7%
c s 402.70 71 21 121 101196 2283969 107825 16% 16 105708 6805  7%
c - 403.51 81 21 122 101197 2287094 83166 16% 16 105708 6805  7%
c - 410.95 81 20 123 101197 2324886 82900 16% 15 105708 6805  7%
c d 411.00 81 20 123 101197 2325021 82995 16% 15 105708 6804  7%
c 3 411.02 81 20 123 101197 2325021 83454 16% 15 105708 6804  7%
c 2 411.05 81 20 123 101197 2325021 83454 16% 15 105706 6804  7%
c p 411.07 81 20 123 101197 2325021 83779 16% 15 105706 6804  7%
c B 415.66 81 19 123 101197 2346119 98477 16% 15 105706 6804  7%
c - 419.44 81 20 124 101197 2362985 84584 17% 15 105706 6804  7%
c - 427.80 81 20 125 101197 2401388 86998 17% 16 105706 6804  7%
c W 433.82 81 20 125 101197 2415120 96531 17% 16 105706 6804  7%
c - 439.16 81 21 126 101211 2440098 87318 17% 16 105706 6804  7%
c s 446.23 81 20 126 101227 2473922 110417 17% 16 105705 6804  7%
c w 447.13 81 20 126 101227 2473922 110416 17% 16 105705 6804  7%
c s 447.29 81 20 126 101227 2473922 110395 17% 16 105705 6804  7%
c - 448.66 81 20 127 101227 2479116 88457 17% 16 105705 6804  7%
c d 448.88 81 20 127 101227 2480022 89199 17% 16 105705 6803  7%
c 3 448.89 81 20 127 101227 2480022 89613 17% 16 105705 6803  7%
c 
c  seconds    reductions          redundant   irredundant
c          MB       restarts             trail       variables
c           level          conflicts         glue         remaining
c 
c 2 448.93 81 20 127 101227 2480022 89613 17% 16 105703 6803  7%
c p 448.95 81 20 127 101227 2480022 89912 17% 16 105703 6803  7%
c I 450.16 81 20 127 101228 2485124 93358 17% 16 105703 6803  7%
c - 456.26 60 22 128 101241 2518444 91752 15% 17 105703 6803  7%
c B 463.41 60 24 128 101258 2556125 122283 14% 18 105703 6803  7%
c - 463.98 60 24 129 101258 2558076 92773 14% 18 105703 6803  7%
c - 473.00 60 25 130 101260 2598016 93120 15% 19 105703 6803  7%
c W 481.90 60 26 130 101270 2628126 117628 15% 19 105703 6803  7%
c - 484.29 60 26 131 101275 2638262 91853 15% 20 105703 6803  7%
c d 484.64 60 26 131 101275 2640022 93280 15% 20 105703 6802  7%
c 3 484.65 60 26 131 101275 2640022 93603 15% 20 105703 6802  7%
c 3 484.65 60 26 131 101275 2640022 93721 15% 20 105703 6802  7%
c 2 484.68 60 26 131 101275 2640022 93721 15% 20 105701 6802  7%
c p 484.70 60 26 131 101275 2640022 94031 15% 20 105701 6802  7%
c s 490.96 60 26 131 101290 2671799 118984 16% 19 105699 6802  7%
c v 491.41 60 26 131 101290 2671799 118984 16% 19 105695 6802  7%
c w 491.79 60 26 131 101290 2671799 118979 16% 19 105695 6802  7%
c s 492.04 60 26 131 101290 2671799 118941 16% 19 105695 6802  7%
c - 493.69 60 25 132 101291 2678816 91837 16% 19 105695 6802  7%
c O 498.21 60 25 132 101296 2701129 108349 16% 19 105695 6802  7%
c 
c  seconds    reductions          redundant   irredundant
c          MB       restarts             trail       variables
c           level          conflicts         glue         remaining
c 
c - 502.21 72 24 133 101305 2719678 92212 17% 19 105695 6802  7%
c - 511.34 85 24 134 101322 2760844 93705 17% 18 105695 6802  7%
c B 514.50 85 24 134 101322 2775130 104087 17% 18 105695 6802  7%
c - 520.94 85 23 135 101323 2802318 93092 17% 18 105695 6802  7%
c d 521.51 85 23 135 101323 2805022 94969 17% 18 105695 6800  7%
c 2 521.55 85 23 135 101323 2805022 95355 17% 18 105691 6800  7%
c p 521.56 85 23 135 101323 2805022 95669 17% 18 105691 6800  7%
c - 529.43 85 23 136 101324 2844100 94676 16% 18 105691 6800  7%
c W 533.27 85 23 136 101324 2850132 98998 16% 18 105691 6800  7%
c s 539.50 85 24 136 101326 2877605 120413 16% 19 105689 6800  7%
c w 540.55 85 24 136 101326 2877605 120407 16% 19 105689 6800  7%
c s 540.80 85 24 136 101326 2877605 120377 16% 19 105689 6800  7%
c - 543.03 61 25 137 101331 2886189 95629 16% 19 105689 6800  7%
c I 551.58 61 24 137 101351 2926135 125205 16% 19 105689 6800  7%
c - 552.05 61 25 138 101352 2928584 96770 15% 19 105689 6800  7%
c - 559.39 60 25 139 101364 2971287 98808 14% 19 105689 6800  7%
c d 560.09 60 26 139 101366 2975025 101776 14% 19 105689 6799  7%
c 2 560.13 60 26 139 101366 2975025 102154 14% 19 105687 6799  7%
c p 560.15 60 26 139 101366 2975025 102469 14% 19 105687 6799  7%
c B 565.46 60 26 139 101378 3003138 123431 13% 20 105687 6799  7%
c 
c  seconds    reductions          redundant   irredundant
c          MB       restarts             trail       variables
c           level          conflicts         glue         remaining
c 
c - 568.10 73 26 140 101384 3014297 98096 14% 20 105687 6799  7%
c - 577.23 73 24 141 101387 3057613 97573 15% 19 105687 6799  7%
c W 584.91 73 24 141 101394 3081141 114333 15% 18 105687 6799  7%
c s 587.41 73 24 141 101400 3091346 121829 15% 18 105686 6799  7%
c w 588.26 73 24 141 101400 3091346 121827 15% 18 105686 6799  7%
c s 588.53 73 24 141 101400 3091346 121795 15% 18 105686 6799  7%
c - 590.83 73 24 142 101402 3101237 99633 16% 19 105686 6799  7%
c - 602.02 86 23 143 101418 3145168 101130 16% 18 105686 6799  7%
c p 603.23 86 23 143 101418 3150025 105034 16% 18 105686 6799  7%
c O 605.79 86 23 143 101423 3160142 112153 16% 18 105686 6799  7%
c - 612.15 60 22 144 101435 3189405 100220 16% 17 105686 6799  7%
c - 623.51 73 21 145 101449 3233950 101449 17% 17 105686 6799  7%
c B 625.13 73 21 145 101450 3240144 105852 17% 17 105686 6799  7%
c - 635.83 86 21 146 101451 3278803 102522 18% 16 105686 6799  7%
c W 649.08 86 21 146 101451 3321145 135145 17% 17 105686 6799  7%
c - 650.05 86 21 147 101451 3323964 104577 17% 17 105686 6799  7%
c d 651.72 86 21 147 101451 3330025 109012 18% 17 105686 6797  7%
c 2 651.74 86 21 147 101451 3330025 109367 18% 17 105682 6797  7%
c p 651.76 86 21 147 101451 3330025 109671 18% 17 105682 6797  7%
c s 652.06 86 21 147 101451 3330025 109527 18% 17 105680 6797  7%
c 
c  seconds    reductions          redundant    irredundant
c          MB       restarts              trail       variables
c           level          conflicts          glue         remaining
c 
c w 652.83 86 21 147 101451 3330025 109521 18% 17 105680 6797  7%
c s 653.11 86 21 147 101451 3330025 109480 18% 17 105680 6797  7%
c - 662.94 86 23 148 101452 3369430 107286 17% 18 105680 6797  7%
c I 671.63 86 24 148 101452 3403147 132126 17% 19 105680 6797  7%
c - 674.00 62 24 149 101452 3415203 108119 16% 19 105680 6797  7%
c - 683.51 62 26 150 101452 3461284 110710 15% 19 105680 6797  7%
c B 688.72 62 26 150 101453 3486149 131928 15% 19 105680 6797  7%
c - 694.18 62 25 151 101453 3507671 111065 16% 19 105680 6797  7%
c d 696.03 62 25 151 101453 3515028 116001 16% 19 105680 6796  7%
c 2 696.08 62 25 151 101453 3515028 116350 16% 19 105678 6796  7%
c p 696.10 62 25 151 101453 3515028 116656 16% 19 105678 6796  7%
c - 705.53 61 25 152 101453 3554367 108016 16% 19 105678 6796  7%
c s 707.21 63 24 152 101453 3559628 111665 16% 19 105677 6796  7%
c w 708.14 63 24 152 101453 3559628 111655 16% 19 105677 6796  7%
c s 708.50 63 24 152 101453 3559628 111623 16% 19 105677 6796  7%
c W 714.07 63 24 152 101453 3570150 118875 16% 19 105677 6796  7%
c - 720.63 76 26 153 101453 3601368 110542 15% 19 105677 6796  7%
c - 731.24 90 27 154 101453 3648676 112014 14% 20 105677 6796  7%
c O 732.56 90 27 154 101453 3655152 117188 14% 21 105677 6796  7%
c - 742.18 76 24 155 101453 3696292 110676 14% 18 105677 6796  7%
c 
c  seconds    reductions          redundant    irredundant
c          MB       restarts              trail       variables
c           level          conflicts          glue         remaining
c 
c p 744.42 76 24 155 101453 3705028 117666 14% 18 105677 6796  7%
c B 753.54 76 23 155 101460 3741156 145699 15% 17 105677 6796  7%
c - 754.35 76 23 156 101463 3744217 112111 15% 17 105677 6796  7%
c - 767.37 89 24 157 101483 3792446 111486 15% 19 105677 6796  7%
c W 780.44 89 23 157 101495 3828157 136847 15% 18 105677 6796  7%
c - 784.10 89 23 158 101499 3840983 110903 15% 18 105677 6796  7%
c - 796.16 89 23 159 101515 3889826 113979 16% 18 105677 6796  7%
c p 799.00 89 23 159 101516 3900028 121905 15% 18 105677 6796  7%
c I 803.10 89 23 159 101516 3916158 135177 15% 18 105677 6796  7%
c - 807.43 63 24 160 101524 3938977 119323 14% 19 105677 6796  7%
c - 818.55 63 26 161 101546 3988439 119117 14% 19 105677 6796  7%
c B 822.87 63 26 161 101547 4005160 131484 14% 20 105677 6796  7%
c - 831.65 62 25 162 101562 4038204 117690 15% 19 105677 6796  7%
c - 845.32 77 23 163 101578 4088276 117859 15% 18 105677 6796  7%
c ] 847.22 77 23 163 101579 4095005 122636 15% 18 105677 6796  7%
c { 847.22 77 17 163 101579 4095005 122636 12% 11 105677 6796  7%
c B 847.28 77 17 163 101606 4095162 122751 12% 11 105677 6796  7%
c d 849.35 77 17 163 102143 4100029 126821 12% 11 105677 6794  7%
c 2 849.40 77 17 163 102143 4100029 127242 12% 11 105673 6794  7%
c p 849.43 77 17 163 102143 4100029 127551 12% 11 105673 6794  7%
c 
c  seconds    reductions          redundant    irredundant
c          MB       restarts              trail       variables
c           level          conflicts          glue         remaining
c 
c s 849.89 77 17 163 102143 4100029 127204 12% 11 105671 6794  7%
c v 850.39 77 17 163 102143 4100029 127204 12% 11 105668 6794  7%
c w 851.76 77 17 163 102143 4100029 127190 12% 11 105668 6794  7%
c s 852.21 77 17 163 102143 4100029 127113 12% 11 105668 6794  7%
c - 866.73 91 18 164 107237 4138657 127419 12% 11 105668 6794  7%
c W 883.19 91 19 164 111819 4186164 169279 13% 12 105668 6794  7%
c - 884.46 91 19 165 112018 4189343 132687 13% 12 105668 6794  7%
c - 895.70 91 18 166 114497 4240335 132701 13% 11 105668 6794  7%
c F 904.34 91 18 166 117117 4278165 164867 13% 11 105668 6794  7%
c - 908.28 96 18 167 118555 4291634 137000 13% 11 105668 6794  7%
c d 910.96 96 18 167 119559 4305029 148438 13% 11 105668 6791  7%
c 2 910.99 96 18 167 119559 4305029 149250 13% 11 105664 6791  7%
c p 911.01 96 18 167 119559 4305029 149535 13% 11 105664 6791  7%
